
<<< setup


<<< generate

Version identifier: 22.1.1.0 | 2022-11-28 | 9160aff4d
CPXPARAM_TimeLimit                               1800
Found incumbent of value 0.000000 after 0.00 sec. (0.14 ticks)
Tried aggregator 2 times.
MIP Presolve eliminated 50 rows and 0 columns.
Aggregator did 2500 substitutions.
Reduced MIP has 101 rows, 2500 columns, and 7500 nonzeros.
Reduced MIP has 2500 binaries, 0 generals, 0 SOSs, and 0 indicators.
Presolve time = 0.01 sec. (13.40 ticks)
Tried aggregator 1 time.
Detecting symmetries...
Reduced MIP has 101 rows, 2500 columns, and 7500 nonzeros.
Reduced MIP has 2500 binaries, 0 generals, 0 SOSs, and 0 indicators.
Presolve time = 0.00 sec. (7.99 ticks)
Probing time = 0.00 sec. (3.09 ticks)
Clique table members: 100.
MIP emphasis: balance optimality and feasibility.
MIP search method: dynamic search.
Parallel mode: deterministic, using up to 8 threads.
Root relaxation solution time = 0.00 sec. (5.06 ticks)

        Nodes                                         Cuts/
   Node  Left     Objective  IInf  Best Integer    Best Bound    ItCnt     Gap

*     0+    0                            0.0000   127700.0000              --- 
      0     0     2113.5000     3        0.0000     2113.5000      145     --- 
*     0+    0                         2105.0000     2113.5000             0.40%
      0     0     2109.0085     3     2105.0000       Cuts: 3      154    0.19%
      0     0     2109.0085     7     2105.0000       Cuts: 5      155    0.19%
*     0+    0                         2106.0000     2109.0085             0.14%
      0     0        cutoff           2106.0000     2109.0085      155    0.14%

Repeating presolve.
Tried aggregator 1 time.
MIP Presolve eliminated 16 rows and 800 columns.
Reduced MIP has 85 rows, 1700 columns, and 5100 nonzeros.
Reduced MIP has 1700 binaries, 0 generals, 0 SOSs, and 0 indicators.
Presolve time = 0.00 sec. (3.90 ticks)
Tried aggregator 1 time.
Detecting symmetries...
Reduced MIP has 85 rows, 1700 columns, and 5100 nonzeros.
Reduced MIP has 1700 binaries, 0 generals, 0 SOSs, and 0 indicators.
Presolve time = 0.00 sec. (4.74 ticks)
Represolve time = 0.01 sec. (12.08 ticks)
Probing time = 0.00 sec. (2.85 ticks)
Clique table members: 84.
MIP emphasis: balance optimality and feasibility.
MIP search method: dynamic search.
Parallel mode: deterministic, using up to 8 threads.
Root relaxation solution time = 0.00 sec. (4.99 ticks)

        Nodes                                         Cuts/
   Node  Left     Objective  IInf  Best Integer    Best Bound    ItCnt     Gap

*     0+    0                         2106.0000     2109.0085             0.14%
      0     0     2109.0085     7     2106.0000     2109.0085      276    0.14%
      0     0     2109.0085     9     2106.0000       Cuts: 2      278    0.14%
      0     0     2109.0085    13     2106.0000       Cuts: 2      282    0.14%
      0     2     2109.0085     2     2106.0000     2109.0085      282    0.14%
Elapsed time = 0.15 sec. (206.81 ticks, tree = 0.02 MB, solutions = 3)

Cover cuts applied:  5
Flow cuts applied:  1
Gomory fractional cuts applied:  1

Root node processing (before b&c):
  Real time             =    0.15 sec. (206.61 ticks)
Parallel b&c, 8 threads:
  Real time             =    0.05 sec. (82.24 ticks)
  Sync time (average)   =    0.04 sec.
  Wait time (average)   =    0.00 sec.
                          ------------
Total (root+branch&cut) =    0.20 sec. (288.85 ticks)

<<< solve


OBJECTIVE: 2106

<<< post process


<<< done

